c A SAT instance generated from a 3-CNF formula that had 30 clauses and 10 variables
p cnf 10 30
-10 -4 -6 0
9 -3 2 0
-8 5 2 0
-5 -3 4 0
-8 -6 -1 0
-2 -7 1 0
9 6 1 0
-10 -4 -8 0
-7 -5 9 0
7 8 6 0
-8 3 4 0
7 -8 -2 0
-7 1 -10 0
-5 -2 4 0
-6 3 -9 0
-6 -3 7 0
5 9 3 0
-4 -10 2 0
5 6 10 0
2 -6 -8 0
-4 -3 7 0
6 1 -4 0
8 6 9 0
-6 9 -7 0
-1 2 -8 0
-7 -2 -4 0
4 -7 -8 0
-8 6 1 0
10 -4 2 0
-10 7 1 0
%
0

83 85 73 53 61 98 1 14 88 71
